NAME: pablo7
TYPE: TSP
COMMENT: made up by pablo
DIMENSION: 7
EDGE_WEIGHT_TYPE: EXPLICIT
EDGE_WEIGHT_FORMAT: FULL_MATRIX 
DISPLAY_DATA_TYPE: TWOD_DISPLAY
EDGE_WEIGHT_SECTION
   0   1   4   7   8   2   4
   1   0   5   9   2  12   6
   4   5   0   1   4   7   8
   7   9   1   0   8   2   3
   8   2   4   8   0   1   9
   2  12   7   2   1   0   1
   4   6   8   3   9   1   0
EOF